13
0 415 264 380 128 324 344 343 325 190 174 284 396 
415 0 298 367 391 474 231 213 186 159 464 193 385 
264 298 0 344 289 456 328 338 221 308 348 136 472 
380 367 344 0 228 164 297 473 408 122 163 482 306 
128 391 289 228 0 459 281 173 350 256 305 464 342 
324 474 456 164 459 0 364 428 435 249 273 225 206 
344 231 328 297 281 364 0 101 464 327 309 313 364 
343 213 338 473 173 428 101 0 281 442 428 478 415 
325 186 221 408 350 435 464 281 0 337 100 478 320 
190 159 308 122 256 249 327 442 337 0 306 438 101 
174 464 348 163 305 273 309 428 100 306 0 380 289 
284 193 136 482 464 225 313 478 478 438 380 0 258 
396 385 472 306 342 206 364 415 320 101 289 258 0 
